1 1 -2 0
1 -3 4 0
1 -2 -5 0
1 6 1 0
1 7 -8 0
1 9 -5 0
1 10 11 0
1 -10 -12 0
1 -13 14 0
1 13 -15 0
1 -16 -11 0
1 -11 -17 0
1 -11 13 0
1 -18 19 0
1 -20 21 0
1 20 -12 0
1 12 -22 0
1 -23 -24 0
1 19 -25 0
1 -19 26 0
1 -27 28 0
1 -27 29 0
1 -30 -28 0
1 31 32 0
1 31 6 0
1 33 -34 0
1 8 7 0
1 -34 35 0
1 32 33 0
1 -36 37 0
1 36 -16 0
1 -38 -39 0
1 -38 -5 0
1 -40 41 0
1 40 -42 0
1 17 43 0
1 39 -17 0
1 -39 36 0
1 44 -45 0
1 44 -36 0
1 46 -47 0
1 25 -39 0
1 -48 -49 0
1 -42 -43 0
1 42 -50 0
1 -42 26 0
1 -42 51 0
1 -43 42 0
1 -43 -52 0
1 -53 54 0
1 -53 49 0
1 -49 54 0
1 49 -40 0
1 -49 -52 0
1 -50 -55 0
1 -50 -54 0
1 50 -56 0
1 57 -50 0
1 58 59 0
1 59 25 0
1 -60 -61 0
1 62 63 0
1 -62 -55 0
1 62 64 0
1 -61 55 0
1 55 62 0
1 45 32 0
1 47 65 0
1 47 -45 0
1 66 67 0
1 66 44 0
1 -66 68 0
1 -69 -46 0
1 70 69 0
1 65 -69 0
1 -71 -44 0
1 -72 -53 0
1 -54 73 0
1 54 -74 0
1 54 -75 0
1 -75 67 0
1 75 -76 0
1 -75 77 0
1 75 78 0
1 75 79 0
1 76 52 0
1 80 81 0
1 -80 -52 0
1 -77 66 0
1 -82 -74 0
1 52 83 0
1 83 -84 0
1 -74 -84 0
